# Objective value = 8.8701499999999978e+03
I_0_0 1428
I_0_1 2.0089999999999995e+03
I_0_2 1834
I_0_3 1623
I_0_4 1814
I_0_5 1.5460000000000002e+03
I_0_6 2017
I_1_0 158
I_1_1 79
I_1_2 0
I_1_3 158
I_1_4 79
I_1_5 158
I_1_6 7.8999999999999929e+01
I_2_0 69
I_2_1 1.5321077739827160e-13
I_2_2 6.8999999999999858e+01
I_2_3 69
I_2_4 0
I_2_5 69
I_2_6 0
I_3_0 87
I_3_1 9.6589403142388619e-14
I_3_2 8.7000000000000114e+01
I_3_3 87
I_3_4 0
I_3_5 87
I_3_6 0
I_4_0 142
I_4_1 7.1000000000000071e+01
I_4_2 -8.5265128291212022e-14
I_4_3 142
I_4_4 71
I_4_5 142
I_4_6 71
I_5_0 86
I_5_1 43
I_5_2 0
I_5_3 86
I_5_4 43
I_5_5 86
I_5_6 4.3000000000000021e+01
I_6_0 77
I_6_1 0
I_6_2 77
I_6_3 0
I_6_4 77
I_6_5 77
I_6_6 1.0685896612017132e-15
I_7_0 126
I_7_1 63
I_7_2 126
I_7_3 63
I_7_4 1.2600000000000010e+02
I_7_5 6.2999999999999972e+01
I_7_6 -5.3290705182007514e-15
I_8_0 27
I_8_1 0
I_8_2 27
I_8_3 27
I_8_4 0
I_8_5 27
I_8_6 0
I_9_0 20
I_9_1 1.0000000000000004e+01
I_9_2 0
I_9_3 20
I_9_4 1.0000000000000002e+01
I_9_5 1.9999999999999993e+01
I_9_6 9.9999999999999911e+00
I_10_0 55
I_10_1 -4.8849813083506888e-14
I_10_2 5.5000000000000050e+01
I_10_3 -1.7555401576885288e-14
I_10_4 5.5000000000000021e+01
I_10_5 -2.3661628212323649e-14
I_10_6 5.5000000000000014e+01
q_1_0 0
q_1_1 0
q_1_2 237
q_1_3 0
q_1_4 158
q_1_5 0
q_2_0 1.5321077739827160e-13
q_2_1 1.3799999999999972e+02
q_2_2 6.9000000000000142e+01
q_2_3 0
q_2_4 138
q_2_5 0
q_3_0 9.6589403142388619e-14
q_3_1 174
q_3_2 8.6999999999999886e+01
q_3_3 0
q_3_4 174
q_3_5 0
q_4_0 7.4884543010966809e-14
q_4_1 -1.4210854715202004e-13
q_4_2 2.1300000000000009e+02
q_4_3 0
q_4_4 142
q_4_5 0
q_5_0 0
q_5_1 0
q_5_2 129
q_5_3 0
q_5_4 86
q_5_5 0
q_6_0 0
q_6_1 154
q_6_2 0
q_6_3 154
q_6_4 77
q_6_5 1.0685896612017132e-15
q_7_0 0
q_7_1 126
q_7_2 0
q_7_3 1.2600000000000010e+02
q_7_4 -1.0658141036401503e-13
q_7_5 0
q_8_0 0
q_8_1 54
q_8_2 27
q_8_3 0
q_8_4 54
q_8_5 0
q_9_0 2.7755575615628914e-15
q_9_1 -3.5527136788005009e-15
q_9_2 30
q_9_3 0
q_9_4 1.9999999999999986e+01
q_9_5 0
q_10_0 -4.8849813083506888e-14
q_10_1 1.1000000000000010e+02
q_10_2 -6.72933930800923e-14
q_10_3 1.1000000000000003e+02
q_10_4 -4.4977910285126654e-14
q_10_5 1.1000000000000003e+02
y_0_0 -8.8817841970012523e-16
y_0_1 1
y_0_2 1
y_0_3 1
y_0_4 1
y_0_5 1.0000000000000002e+00
y_1_0 0
y_1_1 0
y_1_2 1
y_1_3 0
y_1_4 1
y_1_5 0
y_2_0 2.2204460492503131e-15
y_2_1 0.999999999999998
y_2_2 1
y_2_3 0
y_2_4 1
y_2_5 0
y_3_0 1.1102230246251565e-15
y_3_1 1.0000000000000013e+00
y_3_2 1
y_3_3 0
y_3_4 1
y_3_5 0
y_4_0 1.0547118733938987e-15
y_4_1 -9.9920072216264089e-16
y_4_2 1
y_4_3 0
y_4_4 1
y_4_5 0
y_5_0 0
y_5_1 0
y_5_2 1
y_5_3 0
y_5_4 1.0000000000000004e+00
y_5_5 0
y_6_0 0
y_6_1 1
y_6_2 0
y_6_3 1
y_6_4 1
y_6_5 1.3877787807814457e-17
y_7_0 0
y_7_1 1
y_7_2 0
y_7_3 1
y_7_4 -8.3266726846886741e-17
y_7_5 0
y_8_0 0
y_8_1 1
y_8_2 1
y_8_3 0
y_8_4 1
y_8_5 0
y_9_0 2.7755575615628914e-16
y_9_1 0
y_9_2 1
y_9_3 0
y_9_4 1
y_9_5 0
y_10_0 -8.8817841970012523e-16
y_10_1 1.0000000000000009e+00
y_10_2 -3.1918911957973251e-16
y_10_3 1.0000000000000004e+00
y_10_4 -4.3021142204224816e-16
y_10_5 1.0000000000000002e+00
x_0_1_0 0
x_0_1_1 0
x_0_1_2 0
x_0_1_3 0
x_0_1_4 0
x_0_1_5 0
x_0_2_0 0
x_0_2_1 0
x_0_2_2 0
x_0_2_3 0
x_0_2_4 0
x_0_2_5 0
x_0_3_0 0
x_0_3_1 0
x_0_3_2 0
x_0_3_3 0
x_0_3_4 0
x_0_3_5 0
x_0_4_0 0
x_0_4_1 0
x_0_4_2 1.0000000000000004e+00
x_0_4_3 0
x_0_4_4 1
x_0_4_5 0
x_0_5_0 0
x_0_5_1 0
x_0_5_2 0
x_0_5_3 0
x_0_5_4 0
x_0_5_5 0
x_0_6_0 0
x_0_6_1 9.9999999999999978e-01
x_0_6_2 0
x_0_6_3 1.0000000000000018e+00
x_0_6_4 1.0000000000000009e+00
x_0_6_5 0
x_0_7_0 0
x_0_7_1 -2.4424906541753444e-15
x_0_7_2 0
x_0_7_3 -1.3877787807814457e-16
x_0_7_4 0
x_0_7_5 0
x_0_8_0 0
x_0_8_1 1.9984014443252818e-15
x_0_8_2 1
x_0_8_3 0
x_0_8_4 0
x_0_8_5 0
x_0_9_0 0
x_0_9_1 0
x_0_9_2 0
x_0_9_3 0
x_0_9_4 0
x_0_9_5 0
x_0_10_0 -1.7763568394002505e-15
x_0_10_1 1.0000000000000013e+00
x_0_10_2 -2.6367796834847468e-16
x_0_10_3 1.0000000000000004e+00
x_0_10_4 -8.6042284408449632e-16
x_0_10_5 2.0000000000000004e+00
x_1_2_0 0
x_1_2_1 -8.8817841970012523e-16
x_1_2_2 1
x_1_2_3 0
x_1_2_4 1
x_1_2_5 0
x_1_3_0 0
x_1_3_1 0
x_1_3_2 0
x_1_3_3 0
x_1_3_4 -3.4694469519536142e-16
x_1_3_5 0
x_1_4_0 0
x_1_4_1 0
x_1_4_2 0
x_1_4_3 0
x_1_4_4 0
x_1_4_5 0
x_1_5_0 0
x_1_5_1 0
x_1_5_2 0
x_1_5_3 0
x_1_5_4 0
x_1_5_5 0
x_1_6_0 0
x_1_6_1 0
x_1_6_2 0
x_1_6_3 0
x_1_6_4 0
x_1_6_5 0
x_1_7_0 0
x_1_7_1 0
x_1_7_2 0
x_1_7_3 0
x_1_7_4 0
x_1_7_5 0
x_1_8_0 0
x_1_8_1 0
x_1_8_2 0
x_1_8_3 0
x_1_8_4 0
x_1_8_5 0
x_1_9_0 0
x_1_9_1 8.8817841970012523e-16
x_1_9_2 1
x_1_9_3 0
x_1_9_4 1.0000000000000004e+00
x_1_9_5 0
x_1_10_0 0
x_1_10_1 0
x_1_10_2 0
x_1_10_3 0
x_1_10_4 0
x_1_10_5 0
x_2_3_0 2.2204460492503131e-15
x_2_3_1 1.0000000000000020e+00
x_2_3_2 0
x_2_3_3 0
x_2_3_4 0
x_2_3_5 0
x_2_4_0 1.9984014443252818e-15
x_2_4_1 0
x_2_4_2 0
x_2_4_3 0
x_2_4_4 0
x_2_4_5 0
x_2_5_0 0
x_2_5_1 0
x_2_5_2 1
x_2_5_3 0
x_2_5_4 1
x_2_5_5 0
x_2_6_0 0
x_2_6_1 0
x_2_6_2 0
x_2_6_3 0
x_2_6_4 0
x_2_6_5 0
x_2_7_0 0
x_2_7_1 0.999999999999998
x_2_7_2 0
x_2_7_3 0
x_2_7_4 8.3266726846886741e-17
x_2_7_5 0
x_2_8_0 0
x_2_8_1 0
x_2_8_2 0
x_2_8_3 0
x_2_8_4 0
x_2_8_5 0
x_2_9_0 5.5511151231257827e-16
x_2_9_1 -2.8865798640254070e-15
x_2_9_2 0
x_2_9_3 0
x_2_9_4 0
x_2_9_5 0
x_2_10_0 0
x_2_10_1 0
x_2_10_2 0
x_2_10_3 0
x_2_10_4 0
x_2_10_5 0
x_3_4_0 0
x_3_4_1 0
x_3_4_2 0
x_3_4_3 0
x_3_4_4 1.6653345369377348e-16
x_3_4_5 0
x_3_5_0 0
x_3_5_1 0
x_3_5_2 0
x_3_5_3 0
x_3_5_4 0
x_3_5_5 0
x_3_6_0 0
x_3_6_1 0
x_3_6_2 0
x_3_6_3 0
x_3_6_4 0
x_3_6_5 -1.3877787807814457e-16
x_3_7_0 0
x_3_7_1 0
x_3_7_2 0
x_3_7_3 0
x_3_7_4 0
x_3_7_5 1.3877787807814457e-16
x_3_8_0 0
x_3_8_1 9.9999999999999833e-01
x_3_8_2 1
x_3_8_3 0
x_3_8_4 1
x_3_8_5 0
x_3_9_0 0
x_3_9_1 1.8873791418627661e-15
x_3_9_2 1
x_3_9_3 0
x_3_9_4 9.9999999999999989e-01
x_3_9_5 0
x_3_10_0 0
x_3_10_1 0
x_3_10_2 0
x_3_10_3 0
x_3_10_4 0
x_3_10_5 0
x_4_5_0 0
x_4_5_1 0
x_4_5_2 1
x_4_5_3 0
x_4_5_4 1.0000000000000018e+00
x_4_5_5 0
x_4_6_0 0
x_4_6_1 0
x_4_6_2 0
x_4_6_3 0
x_4_6_4 0
x_4_6_5 0
x_4_7_0 0
x_4_7_1 0
x_4_7_2 0
x_4_7_3 0
x_4_7_4 -4.7184478546569153e-16
x_4_7_5 0
x_4_8_0 0
x_4_8_1 0
x_4_8_2 0
x_4_8_3 0
x_4_8_4 0
x_4_8_5 0
x_4_9_0 0
x_4_9_1 0
x_4_9_2 0
x_4_9_3 0
x_4_9_4 0
x_4_9_5 0
x_4_10_0 0
x_4_10_1 -2.2204460492503131e-15
x_4_10_2 -3.4694469519536142e-16
x_4_10_3 0
x_4_10_4 0
x_4_10_5 0
x_5_6_0 0
x_5_6_1 0
x_5_6_2 0
x_5_6_3 0
x_5_6_4 0
x_5_6_5 0
x_5_7_0 0
x_5_7_1 0
x_5_7_2 0
x_5_7_3 0
x_5_7_4 0
x_5_7_5 0
x_5_8_0 0
x_5_8_1 0
x_5_8_2 0
x_5_8_3 0
x_5_8_4 0
x_5_8_5 0
x_5_9_0 0
x_5_9_1 0
x_5_9_2 0
x_5_9_3 0
x_5_9_4 0
x_5_9_5 0
x_5_10_0 0
x_5_10_1 0
x_5_10_2 0
x_5_10_3 0
x_5_10_4 0
x_5_10_5 0
x_6_7_0 0
x_6_7_1 0
x_6_7_2 0
x_6_7_3 1
x_6_7_4 -2.9143354396410359e-16
x_6_7_5 1.1102230246251565e-16
x_6_8_0 0
x_6_8_1 1.0000000000000002e+00
x_6_8_2 0
x_6_8_3 0
x_6_8_4 9.9999999999999978e-01
x_6_8_5 0
x_6_9_0 0
x_6_9_1 0
x_6_9_2 0
x_6_9_3 0
x_6_9_4 0
x_6_9_5 0
x_6_10_0 0
x_6_10_1 0
x_6_10_2 0
x_6_10_3 -3.3861802251067274e-15
x_6_10_4 0
x_6_10_5 0
x_7_8_0 0
x_7_8_1 0
x_7_8_2 0
x_7_8_3 0
x_7_8_4 -3.6082248300317588e-16
x_7_8_5 0
x_7_9_0 0
x_7_9_1 0
x_7_9_2 0
x_7_9_3 0
x_7_9_4 0
x_7_9_5 0
x_7_10_0 0
x_7_10_1 1.0000000000000029e+00
x_7_10_2 0
x_7_10_3 1
x_7_10_4 0
x_7_10_5 0
x_8_9_0 0
x_8_9_1 0
x_8_9_2 0
x_8_9_3 0
x_8_9_4 -1.2490009027033011e-16
x_8_9_5 0
x_8_10_0 0
x_8_10_1 0
x_8_10_2 0
x_8_10_3 0
x_8_10_4 0
x_8_10_5 0
x_9_10_0 0
x_9_10_1 0
x_9_10_2 0
x_9_10_3 0
x_9_10_4 0
x_9_10_5 0
